WARNING: for repeatability, setting FPU to use double precision
============================[ Problem Statistics ]=============================
|                                                                             |
|  Number of variables:            50                                         |
|  Number of clauses:             218                                         |
|  Parse time:                   0.00 s                                       |
|                                                                             |
============================[ Search Statistics ]==============================
| Conflicts |          ORIGINAL         |          LEARNT          | Progress |
|           |    Vars  Clauses Literals |    Limit  Clauses Lit/Cl |          |
===============================================================================
===============================================================================
restarts              : 1
conflicts             : 93             (59085 /sec)
decisions             : 115            (0.00 % random) (73062 /sec)
propagations          : 1313           (834180 /sec)
conflict literals     : 446            (9.53 % deleted)
Memory used           : 20.00 MB
CPU time              : 0.001574 s

UNSATISFIABLE
